db/data/343324761576998131494814235997316684.z3.out
-------------------
2500.167731245
